14 6
68 117 98 41 176 1 41 11 165 79 91 171 65 143
0 35 73 146 139 92 174 92 197 76 172 57 146 160 187
130 0 86 30 18 44 173 74 54 78 123 8 1 7 58
8 194 0 164 6 8 196 143 6 139 54 83 48 63 184
132 185 77 0 84 19 169 161 56 95 95 41 31 63 30
138 134 140 187 0 125 122 52 82 193 99 97 108 122 165
120 95 64 4 60 0 18 106 113 123 20 145 85 161 152
185 200 24 110 34 191 0 41 73 45 128 180 200 58 35
172 84 86 39 110 77 129 0 85 87 177 77 61 61 178
3 108 38 35 128 15 37 175 0 157 158 59 190 44 23
17 52 14 38 164 175 49 135 194 0 182 95 16 32 33
2 37 142 113 147 81 146 44 178 69 0 161 188 71 121
4 54 159 61 167 50 162 154 29 44 17 0 97 111 29
150 143 43 30 99 165 81 19 68 176 41 192 0 129 1
176 51 83 155 26 85 176 195 89 110 186 81 171 0 28
145 67 146 136 81 176 116 141 134 192 195 181 124 13 0